% File represents an instance of a Composite Structure problem to be solved by a CP framework
% Created on 2025-03-26 10:41:15.684
T = 56;
n = 9;
m = 12;
edges = [(2, 1),
(4, 5),
(7, 8),
(3, 2),
(6, 5),
(8, 9),
(4, 1),
(7, 4),
(2, 5),
(8, 5),
(3, 6),
(6, 9)];
counts = [|20, 2, 20, 2,
|22, 2, 22, 4,
|22, 6, 22, 6,
|20, 2, 20, 4,
|20, 2, 20, 2,
|22, 4, 22, 2,
|22, 4, 22, 4,
|22, 4, 22, 2,
|22, 2, 22, 2|];
